
Gurobi 9.5.1 (linux64) logging started Mon Jul  4 11:56:25 2022

Set parameter LogFile to value "../results/logs/log_flickrEdges_20_20_2022_07_04_11_23.log"
Gurobi Optimizer version 9.5.1 build v9.5.1rc2 (linux64)
Thread count: 8 physical cores, 8 logical processors, using up to 8 threads
Optimize a model with 19606 rows, 211876 columns and 744837 nonzeros
Model fingerprint: 0x54c200fd
Coefficient statistics:
  Matrix range     [1e+00, 2e+01]
  Objective range  [1e+00, 1e+00]
  Bounds range     [1e+00, 1e+00]
  RHS range        [1e+00, 2e+01]

Concurrent LP optimizer: primal simplex, dual simplex, and barrier
Showing barrier log only...

Presolve removed 88 rows and 142985 columns
Presolve time: 0.32s
Presolved: 19518 rows, 68891 columns, 380075 nonzeros

Ordering time: 0.48s

Barrier statistics:
 Dense cols : 20
 AA' NZ     : 6.554e+05
 Factor NZ  : 1.448e+07 (roughly 150 MB of memory)
 Factor Ops : 4.717e+10 (less than 1 second per iteration)
 Threads    : 6

                  Objective                Residual
Iter       Primal          Dual         Primal    Dual     Compl     Time
   0   1.93585390e+04  2.38249210e+04  1.25e+05 2.50e-01  1.24e+00     1s
   1   1.95728712e+04  2.47903286e+04  6.09e+04 2.44e-01  6.10e-01     1s
   2   1.99828639e+04  2.48940017e+04  4.58e+04 5.64e-02  4.36e-01     2s
   3   1.89615902e+04  2.24885703e+04  1.08e+04 1.27e-02  1.13e-01     2s
   4   1.79806417e+04  2.08292160e+04  3.72e+03 6.67e-03  5.03e-02     2s
   5   1.76670553e+04  1.89566154e+04  2.09e+03 3.13e-03  2.67e-02     3s
   6   1.75212603e+04  1.79180609e+04  1.56e+03 1.50e-03  1.69e-02     3s
   7   1.73242409e+04  1.75278726e+04  9.64e+02 9.62e-04  1.05e-02     4s
   8   1.71582467e+04  1.73308694e+04  5.47e+02 7.10e-04  6.63e-03     4s
   9   1.70805999e+04  1.71408768e+04  3.98e+02 4.97e-04  4.84e-03     5s
  10   1.70081586e+04  1.70459473e+04  3.00e+02 4.00e-04  3.83e-03     5s
  11   1.69483984e+04  1.69307401e+04  2.27e+02 3.06e-04  2.94e-03     6s
  12   1.69222330e+04  1.68740833e+04  2.02e+02 2.66e-04  2.63e-03     6s
  13   1.68737357e+04  1.68210925e+04  1.60e+02 2.24e-04  2.12e-03     6s
  14   1.68497676e+04  1.67780783e+04  1.43e+02 1.95e-04  1.89e-03     7s
  15   1.68445669e+04  1.67535704e+04  1.40e+02 1.80e-04  1.81e-03     7s
  16   1.68379720e+04  1.67440363e+04  1.35e+02 1.75e-04  1.76e-03     7s
  17   1.68135266e+04  1.67181326e+04  1.19e+02 1.61e-04  1.56e-03     8s
  18   1.68046338e+04  1.67040973e+04  1.14e+02 1.53e-04  1.47e-03     8s
  19   1.67908023e+04  1.66991784e+04  1.06e+02 1.42e-04  1.38e-03     8s
  20   1.67741240e+04  1.66684919e+04  9.74e+01 1.28e-04  1.25e-03     9s
  21   1.67650393e+04  1.66570265e+04  9.31e+01 1.21e-04  1.19e-03     9s
  22   1.67591725e+04  1.66433247e+04  9.02e+01 1.15e-04  1.14e-03     9s

Barrier performed 22 iterations in 9.29 seconds (10.13 work units)
Barrier solve interrupted - model solved by another algorithm


Solved with primal simplex
Solved in 6614 iterations and 9.33 seconds (11.99 work units)
Optimal objective  1.623778209e+04
